NAME PortOpt_n10_m4_inst_1
ROWS
 N  OBJ
 E  budget  
 G  return  
 L  uncertain_risk
 L  fixed_risk
COLUMNS
    asset[0]  budget    1
    asset[0]  return    3.1860537003401239e+00
    asset[1]  budget    1
    asset[1]  return    4.3501672819675239e+00
    asset[2]  budget    1
    asset[2]  return    3.9361489187347689e+00
    asset[3]  budget    1
    asset[3]  return    4.4747034273446724e+00
    asset[4]  budget    1
    asset[4]  return    3.0105285946954359e+00
    asset[5]  budget    1
    asset[5]  return    1.6349383708056442e+00
    asset[6]  budget    1
    asset[6]  return    1.9099483619203532e+00
    asset[7]  budget    1
    asset[7]  return    1.7724225033140504e+00
    asset[8]  budget    1
    asset[8]  return    1.9368574781909402e+00
    asset[9]  budget    1
    asset[9]  return    3.7532321760327405e+00
    return_var  OBJ       -1
    return_var  return    -1
    uncertain_risk_var  OBJ       1
    uncertain_risk_var  uncertain_risk  -1
    fixed_risk_var  OBJ       1
    fixed_risk_var  fixed_risk  -1
RHS
    RHS1      budget    1
BOUNDS
QCMATRIX   uncertain_risk
    asset[0]  asset[0]  7.3012065124652581e-02
    asset[0]  asset[1]  -4.3759589410389224e-02
    asset[1]  asset[0]  -4.3759589410389224e-02
    asset[0]  asset[2]  -6.2735152965676416e-02
    asset[2]  asset[0]  -6.2735152965676416e-02
    asset[0]  asset[3]  -2.2255817390116422e-02
    asset[3]  asset[0]  -2.2255817390116422e-02
    asset[0]  asset[4]  -1.0418417848886667e-02
    asset[4]  asset[0]  -1.0418417848886667e-02
    asset[0]  asset[5]  -9.9206741494254191e-03
    asset[5]  asset[0]  -9.9206741494254191e-03
    asset[0]  asset[6]  3.0002636302730074e-03
    asset[6]  asset[0]  3.0002636302730074e-03
    asset[0]  asset[7]  1.7450302642155267e-02
    asset[7]  asset[0]  1.7450302642155267e-02
    asset[0]  asset[8]  -3.3783080101910917e-02
    asset[8]  asset[0]  -3.3783080101910917e-02
    asset[0]  asset[9]  -2.9753936474912097e-02
    asset[9]  asset[0]  -2.9753936474912097e-02
    asset[1]  asset[1]  9.5535033356996701e-02
    asset[1]  asset[2]  2.8240155217507376e-02
    asset[2]  asset[1]  2.8240155217507376e-02
    asset[1]  asset[3]  -3.0811491263653543e-02
    asset[3]  asset[1]  -3.0811491263653543e-02
    asset[1]  asset[4]  7.3765405565991052e-02
    asset[4]  asset[1]  7.3765405565991052e-02
    asset[1]  asset[5]  3.6130747123201003e-02
    asset[5]  asset[1]  3.6130747123201003e-02
    asset[1]  asset[6]  2.8690225313708097e-02
    asset[6]  asset[1]  2.8690225313708097e-02
    asset[1]  asset[7]  -3.6687975978393045e-02
    asset[7]  asset[1]  -3.6687975978393045e-02
    asset[1]  asset[8]  -7.8291716081685780e-02
    asset[8]  asset[1]  -7.8291716081685780e-02
    asset[1]  asset[9]  -2.7988623332599515e-02
    asset[9]  asset[1]  -2.7988623332599515e-02
    asset[2]  asset[2]  1.1134379953496033e-01
    asset[2]  asset[3]  8.0080942963140750e-02
    asset[3]  asset[2]  8.0080942963140750e-02
    asset[2]  asset[4]  4.7885424752683370e-02
    asset[4]  asset[2]  4.7885424752683370e-02
    asset[2]  asset[5]  7.1371095014347626e-03
    asset[5]  asset[2]  7.1371095014347626e-03
    asset[2]  asset[6]  -1.2072247877742651e-02
    asset[6]  asset[2]  -1.2072247877742651e-02
    asset[2]  asset[7]  1.9297874413333662e-02
    asset[7]  asset[2]  1.9297874413333662e-02
    asset[2]  asset[8]  9.4024612369627059e-02
    asset[8]  asset[2]  9.4024612369627059e-02
    asset[2]  asset[9]  1.1079350047885130e-01
    asset[9]  asset[2]  1.1079350047885130e-01
    asset[3]  asset[3]  9.4804209662440062e-02
    asset[3]  asset[4]  6.8593931877121584e-03
    asset[4]  asset[3]  6.8593931877121584e-03
    asset[3]  asset[5]  -1.8687955535104564e-02
    asset[5]  asset[3]  -1.8687955535104564e-02
    asset[3]  asset[6]  -2.1937340072886835e-02
    asset[6]  asset[3]  -2.1937340072886835e-02
    asset[3]  asset[7]  3.7975971613845291e-02
    asset[7]  asset[3]  3.7975971613845291e-02
    asset[3]  asset[8]  1.3374382677014063e-01
    asset[8]  asset[3]  1.3374382677014063e-01
    asset[3]  asset[9]  1.1926063552845587e-01
    asset[9]  asset[3]  1.1926063552845587e-01
    asset[4]  asset[4]  1.0839100317402904e-01
    asset[4]  asset[5]  3.3416066877480874e-02
    asset[5]  asset[4]  3.3416066877480874e-02
    asset[4]  asset[6]  2.4464981521885767e-02
    asset[6]  asset[4]  2.4464981521885767e-02
    asset[4]  asset[7]  -1.5380808332603343e-03
    asset[7]  asset[4]  -1.5380808332603343e-03
    asset[4]  asset[8]  -4.7541127143834766e-02
    asset[8]  asset[4]  -4.7541127143834766e-02
    asset[4]  asset[9]  2.7008215324930848e-02
    asset[9]  asset[4]  2.7008215324930848e-02
    asset[5]  asset[5]  1.8946205358178703e-02
    asset[5]  asset[6]  9.5180681911599813e-03
    asset[6]  asset[5]  9.5180681911599813e-03
    asset[5]  asset[7]  -9.3502500475834208e-03
    asset[7]  asset[5]  -9.3502500475834208e-03
    asset[5]  asset[8]  -4.4360691811654675e-02
    asset[8]  asset[5]  -4.4360691811654675e-02
    asset[5]  asset[9]  -1.5190023785001918e-02
    asset[9]  asset[5]  -1.5190023785001918e-02
    asset[6]  asset[6]  1.6265531167681747e-02
    asset[6]  asset[7]  -1.5892005874473800e-02
    asset[7]  asset[6]  -1.5892005874473800e-02
    asset[6]  asset[8]  -4.3590976782001592e-02
    asset[8]  asset[6]  -4.3590976782001592e-02
    asset[6]  asset[9]  -2.6753746284610115e-02
    asset[9]  asset[6]  -2.6753746284610115e-02
    asset[7]  asset[7]  3.2972201918904445e-02
    asset[7]  asset[8]  5.1661649349823882e-02
    asset[8]  asset[7]  5.1661649349823882e-02
    asset[7]  asset[9]  5.1391107540176423e-02
    asset[9]  asset[7]  5.1391107540176423e-02
    asset[8]  asset[8]  2.2004290405223495e-01
    asset[8]  asset[9]  1.5766674363663291e-01
    asset[9]  asset[8]  1.5766674363663291e-01
    asset[9]  asset[9]  1.5579640820153498e-01
QCMATRIX   fixed_risk
    asset[0]  asset[0]  8.0774853131292956e-03
    asset[1]  asset[1]  9.3587522417805206e-03
    asset[2]  asset[2]  1.1017293006575819e-02
    asset[3]  asset[3]  8.9360217519342585e-03
    asset[4]  asset[4]  1.0362984799284823e-02
    asset[5]  asset[5]  1.7803042419218128e-03
    asset[6]  asset[6]  1.5464465863801397e-03
    asset[7]  asset[7]  3.0814001711317388e-03
    asset[8]  asset[8]  2.2439458232428145e-02
    asset[9]  asset[9]  1.6073214580436885e-02
ENDATA
